
Gurobi 10.0.1 (mac64[arm]) logging started Mon Sep 18 22:41:07 2023

Set parameter LogFile to value "base_scenario/results/mip_log.txt"
Gurobi Optimizer version 10.0.1 build v10.0.1rc0 (mac64[arm])

CPU model: Apple M1
Thread count: 8 physical cores, 8 logical processors, using up to 8 threads

Optimize a model with 1694 rows, 6293 columns and 24772 nonzeros
Model fingerprint: 0xed31abcf
Model has 8978 general constraints
Variable types: 1 continuous, 6292 integer (408 binary)
Coefficient statistics:
  Matrix range     [6e-02, 3e+05]
  Objective range  [9e-02, 2e+05]
  Bounds range     [1e+00, 2e+07]
  RHS range        [4e+03, 2e+04]
  GenCon rhs range [1e+00, 1e+00]
  GenCon coe range [1e+00, 1e+00]
Presolve removed 44 rows and 373 columns
Presolve time: 0.07s
Presolved: 1650 rows, 5920 columns, 23713 nonzeros
Presolved model has 4 SOS constraint(s)
Variable types: 0 continuous, 5920 integer (34 binary)

Root relaxation: objective 5.259885e+07, 7463 iterations, 0.09 seconds (0.13 work units)

    Nodes    |    Current Node    |     Objective Bounds      |     Work
 Expl Unexpl |  Obj  Depth IntInf | Incumbent    BestBd   Gap | It/Node Time

     0     0 5.2599e+07    0  338          - 5.2599e+07      -     -    0s
H    0     0                    5.970778e+07 5.3698e+07  10.1%     -    0s
     0     0 5.3701e+07    0  746 5.9708e+07 5.3701e+07  10.1%     -    0s
     0     0 5.3701e+07    0  731 5.9708e+07 5.3701e+07  10.1%     -    0s
     0     0 5.3794e+07    0  739 5.9708e+07 5.3794e+07  9.90%     -    0s
     0     0 5.3794e+07    0  789 5.9708e+07 5.3794e+07  9.90%     -    0s
     0     0 5.3794e+07    0  740 5.9708e+07 5.3794e+07  9.90%     -    0s
     0     0 5.3806e+07    0  740 5.9708e+07 5.3806e+07  9.89%     -    0s
     0     0 5.3867e+07    0  811 5.9708e+07 5.3867e+07  9.78%     -    0s
     0     0 5.3873e+07    0  809 5.9708e+07 5.3873e+07  9.77%     -    0s
     0     0 5.3875e+07    0  812 5.9708e+07 5.3875e+07  9.77%     -    0s
     0     0 5.3909e+07    0  816 5.9708e+07 5.3909e+07  9.71%     -    0s
     0     0 5.3909e+07    0  819 5.9708e+07 5.3909e+07  9.71%     -    0s
     0     0 5.3909e+07    0  819 5.9708e+07 5.3909e+07  9.71%     -    0s
H    0     0                    5.969907e+07 5.3923e+07  9.68%     -    0s
     0     0 5.3928e+07    0  833 5.9699e+07 5.3928e+07  9.67%     -    0s
     0     0 5.3952e+07    0  807 5.9699e+07 5.3952e+07  9.63%     -    0s
H    0     0                    5.779320e+07 5.3952e+07  6.65%     -    0s
     0     2 5.3952e+07    0  800 5.7793e+07 5.3952e+07  6.65%     -    0s
H   33    40                    5.772741e+07 5.4229e+07  6.06%   606    1s
H   37    40                    5.758955e+07 5.4229e+07  5.84%   581    1s
H   38    40                    5.758663e+07 5.4229e+07  5.83%   577    1s
H   74    75                    5.670868e+07 5.4244e+07  4.35%   413    1s
H 1150   765                    5.670868e+07 5.4527e+07  3.85%   150    3s
H 1495   968                    5.670868e+07 5.4607e+07  3.71%   133    4s
H 1530   949                    5.670867e+07 5.4607e+07  3.71%   140    4s
H 1531   903                    5.670832e+07 5.4607e+07  3.71%   140    4s
H 1665   926                    5.670715e+07 5.4607e+07  3.70%   142    5s
H 2365   915                    5.670704e+07 5.4607e+07  3.70%   132    6s
H 3654  1083                    5.666888e+07 5.4607e+07  3.64%   120    7s
H 3784  1042                    5.662879e+07 5.4607e+07  3.57%   117    7s
H 4056  1112                    5.662878e+07 5.4607e+07  3.57%   116    7s
H 4883  1406                    5.659337e+07 5.4607e+07  3.51%   112    8s
H 6022  2018                    5.659334e+07 5.4607e+07  3.51%   104    9s
H 6072  1631                    5.651944e+07 5.4607e+07  3.38%   104    9s
H 6185  1624                    5.648568e+07 5.4607e+07  3.33%   102    9s
  6200  1561 5.5106e+07   30  259 5.6486e+07 5.4607e+07  3.33%   102   10s
H 7051  1758                    5.635496e+07 5.4607e+07  3.10%   103   10s
H 7061  1758                    5.635496e+07 5.4607e+07  3.10%   103   10s
H 7808  1978                    5.635496e+07 5.4607e+07  3.10%   106   11s
 11313  2802 5.4607e+07   24  204 5.6355e+07 5.4607e+07  3.10%   110   15s
H13467  3016                    5.635496e+07 5.4607e+07  3.10%   112   17s
 15631  3206 infeasible   32      5.6355e+07 5.4607e+07  3.10%   116   20s
 20979  3897 5.4790e+07   28  247 5.6355e+07 5.4607e+07  3.10%   120   25s
 26261  4078 5.4783e+07   33  281 5.6355e+07 5.4607e+07  3.10%   124   30s
H27048  4079                    5.632184e+07 5.4614e+07  3.03%   124   32s
 28566  3982 infeasible   27      5.6322e+07 5.4657e+07  2.96%   125   35s
H31006  3866                    5.632100e+07 5.4726e+07  2.83%   127   38s
 32858  3637 5.5198e+07   33   68 5.6321e+07 5.4783e+07  2.73%   130   40s
H33670  3582                    5.632100e+07 5.4807e+07  2.69%   130   41s
H34199  3582                    5.632100e+07 5.4811e+07  2.68%   130   41s
 37344  2988 5.5151e+07   28   39 5.6321e+07 5.4934e+07  2.46%   132   45s
H42755  2414                    5.632100e+07 5.5043e+07  2.27%   131   49s
 42868  2040 5.5211e+07   24   76 5.6321e+07 5.5080e+07  2.20%   131   50s
 46176  1810 infeasible   31      5.6321e+07 5.5912e+07  0.73%   134   55s
*47141  1432              41    5.632100e+07 5.5917e+07  0.72%   131   55s

Explored 48763 nodes (6219604 simplex iterations) in 55.32 seconds (72.50 work units)
Thread count was 8 (of 8 available processors)

Solution count 10: 5.6321e+07 5.6321e+07 5.6321e+07 ... 5.6355e+07

Optimal solution found (tolerance 1.00e-04)
Best objective 5.632099695800e+07, best bound 5.632099623796e+07, gap 0.0000%

Gurobi 10.0.1 (mac64[arm]) logging started Tue Sep 19 13:58:04 2023

Set parameter LogFile to value "base_scenario/results/mip_log.txt"
Gurobi Optimizer version 10.0.1 build v10.0.1rc0 (mac64[arm])

CPU model: Apple M1
Thread count: 8 physical cores, 8 logical processors, using up to 8 threads

Optimize a model with 1694 rows, 6295 columns and 24772 nonzeros
Model fingerprint: 0x2107f074
Model has 2 quadratic objective terms
Model has 8978 general constraints
Variable types: 3 continuous, 6292 integer (408 binary)
Coefficient statistics:
  Matrix range     [6e-02, 3e+05]
  Objective range  [2e-01, 2e+05]
  QObjective range [2e+00, 2e+00]
  Bounds range     [9e-02, 2e+07]
  RHS range        [4e+03, 2e+04]
  GenCon rhs range [1e+00, 1e+00]
  GenCon coe range [1e+00, 1e+00]

Solving a multi-scenario model with 1 scenarios...

Presolve removed 48 rows and 380 columns
Presolve time: 0.10s
Presolved: 1647 rows, 5916 columns, 23706 nonzeros
Presolved model has 2 SOS constraint(s)
Variable types: 0 continuous, 5916 integer (33 binary)

Root relaxation: objective 5.108674e+07, 7354 iterations, 0.10 seconds (0.13 work units)

    Nodes    |    Current Node    |     Objective Bounds      |     Work
 Expl Unexpl |  Obj  Depth IntInf | Incumbent    BestBd   Gap | It/Node Time

     0     0 5.1087e+07    0  376          - 5.1087e+07      -     -    0s
H    0     0                    5.515864e+07 5.1127e+07  7.31%     -    0s
     0     0 5.1159e+07    0  885 5.5159e+07 5.1159e+07  7.25%     -    0s
H    0     0                    5.473240e+07 5.1159e+07  6.53%     -    0s
     0     0 5.1205e+07    0  903 5.4732e+07 5.1205e+07  6.44%     -    0s
     0     0 5.1212e+07    0  917 5.4732e+07 5.1212e+07  6.43%     -    0s
     0     0 5.1212e+07    0  917 5.4732e+07 5.1212e+07  6.43%     -    0s
     0     0 5.1214e+07    0  917 5.4732e+07 5.1214e+07  6.43%     -    0s
     0     0 5.1214e+07    0  917 5.4732e+07 5.1214e+07  6.43%     -    0s
     0     0 5.1328e+07    0  989 5.4732e+07 5.1328e+07  6.22%     -    0s
H    0     0                    5.470772e+07 5.1328e+07  6.18%     -    0s
     0     0 5.1329e+07    0  861 5.4708e+07 5.1329e+07  6.18%     -    0s
     0     0 5.1329e+07    0  869 5.4708e+07 5.1329e+07  6.18%     -    0s
     0     0 5.1362e+07    0 1006 5.4708e+07 5.1362e+07  6.12%     -    0s
     0     0 5.1362e+07    0 1012 5.4708e+07 5.1362e+07  6.12%     -    0s
     0     0 5.1407e+07    0  767 5.4708e+07 5.1407e+07  6.03%     -    0s
     0     0 5.1426e+07    0  750 5.4708e+07 5.1426e+07  6.00%     -    0s
H    0     0                    5.468526e+07 5.1426e+07  5.96%     -    0s
     0     2 5.1426e+07    0  743 5.4685e+07 5.1426e+07  5.96%     -    0s
H   31    40                    5.425855e+07 5.1505e+07  5.07%   476    1s
H   34    40                    5.425532e+07 5.1505e+07  5.07%   472    1s
H   38    40                    5.425431e+07 5.1505e+07  5.07%   444    1s
H   91    87                    5.416357e+07 5.1505e+07  4.91%   385    1s
*  335   216              15    5.414852e+07 5.1726e+07  4.47%   264    1s
H 1065   451                    5.398892e+07 5.1962e+07  3.75%   174    3s
H 1066   451                    5.389396e+07 5.1962e+07  3.58%   174    3s
H 1311   427                    5.388759e+07 5.2053e+07  3.40%   179    3s
H 1312   427                    5.388609e+07 5.2053e+07  3.40%   179    3s
H 1313   427                    5.388492e+07 5.2053e+07  3.40%   179    3s
H 1316   427                    5.388192e+07 5.2053e+07  3.39%   179    3s
H 1325   427                    5.387985e+07 5.2053e+07  3.39%   179    3s
H 1534   470                    5.387985e+07 5.2094e+07  3.31%   173    4s
H 1568   476                    5.387416e+07 5.2094e+07  3.30%   178    4s
H 1569   453                    5.387385e+07 5.2094e+07  3.30%   178    4s
  1759   523 5.3265e+07   29  118 5.3874e+07 5.2094e+07  3.30%   173    5s
H 3108   564                    5.372272e+07 5.2094e+07  3.03%   128    6s
H 3243   577                    5.372147e+07 5.2094e+07  3.03%   126    6s
H 3283   615                    5.372146e+07 5.2094e+07  3.03%   124    6s
H 6258  1234                    5.372054e+07 5.2094e+07  3.03%  97.8    7s
H 7152  1225                    5.372053e+07 5.2315e+07  2.62%  95.6    8s
H 7602  1243                    5.372053e+07 5.2386e+07  2.48%  94.0    8s
  9546  1492 5.2888e+07   24  211 5.3721e+07 5.2649e+07  1.99%  90.0   10s
 21158  2970     cutoff   32      5.3721e+07 5.3384e+07  0.63%  77.2   15s
H21174  2969                    5.372053e+07 5.3384e+07  0.63%  77.2   15s
*24089   399              29    5.365040e+07 5.3513e+07  0.26%  77.2   17s
